************************************************************************
file with basedata            : mm63_.bas
initial value random generator: 87643596
************************************************************************
projects                      :  1
jobs (incl. supersource/sink ):  12
horizon                       :  77
RESOURCES
  - renewable                 :  2   R
  - nonrenewable              :  2   N
  - doubly constrained        :  0   D
************************************************************************
PROJECT INFORMATION:
pronr.  #jobs rel.date duedate tardcost  MPM-Time
    1     10      0       11        5       11
************************************************************************
PRECEDENCE RELATIONS:
jobnr.    #modes  #successors   successors
   1        1          3           2   3   4
   2        3          2           5  10
   3        3          3           7   9  10
   4        3          1           9
   5        3          2           6   7
   6        3          2           8  11
   7        3          1          11
   8        3          1           9
   9        3          1          12
  10        3          1          12
  11        3          1          12
  12        1          0        
************************************************************************
REQUESTS/DURATIONS:
jobnr. mode duration  R 1  R 2  N 1  N 2
------------------------------------------------------------------------
  1      1     0       0    0    0    0
  2      1     6      10    2    4    7
         2     8       9    2    4    7
         3    10       7    2    2    5
  3      1     1       6    5    4    8
         2     1       8    5    3    8
         3     7       5    4    2    8
  4      1     5       8    2    8    8
         2     8       8    1    7    8
         3     8       8    2    4    8
  5      1     1       7    7    7    5
         2     1       6    9    6    4
         3     2       6    7    4    3
  6      1     2      10    3    8    4
         2     3      10    2    7    3
         3    10      10    1    6    2
  7      1     2       9    6    9    7
         2     4       7    5    6    4
         3     6       6    4    4    3
  8      1     1      10    4    7    6
         2     2       9    3    7    6
         3     7       6    3    7    6
  9      1     1       8    7    2    8
         2     1       9    9    2    7
         3    10       8    5    1    7
 10      1     3       5    8    3    9
         2     4       3    7    3    8
         3     9       1    6    2    8
 11      1     2       8    5    6   10
         2     5       8    4    4    9
         3     8       7    3    1    9
 12      1     0       0    0    0    0
************************************************************************
RESOURCEAVAILABILITIES:
  R 1  R 2  N 1  N 2
   26   17   51   68
************************************************************************
